1057354
10,49,80,68,38,87,45,81,86,14,39,92,84,22,52,43,24,34,71,28,46,67,61,58,16,82,83,15,4,7,65,54,98,11,23,90,59,19,17,94,26,12,29,40,79,51,78,25,73,66,95,47,57,9,33,32,60,62,13,63,44,55,36,72,91,53,8,89,85,3,5,64,27,2,35,42,97,50,88,76,99,48,37,74,70,1,31,93,56,75,6,69,41,18,77,96,30,20,21